0 0 0 0
0 1 1 0
0 2 0 0
0 3 0 0
0 4 0 2
0 5 0 3
0 6 0 4
0 7 2 2
0 8 0 4
0 9 0 2
0 10 2 8
0 11 1 11
0 12 2 5
0 13 1 6
0 14 1 10
0 15 1 10
0 16 1 2
0 17 0 13
0 18 0 14
0 19 0 19
0 20 2 6
0 21 2 11
0 22 1 16
0 23 0 17
0 24 0 25
0 25 0 22
0 26 2 22
0 27 0 26
0 28 2 22
0 29 0 29
0 30 2 26
0 31 0 36
